c Sudoku solution
p cnf 729 0
116 0
235 0
243 0
257 0
289 0
351 0
397 0
462 0
484 0
511 0
524 0
555 0
628 0
633 0
679 0
736 0
426 0
759 0
873 0
882 0
919 0
899 0
923 0
763 0
313 0
453 0
944 0
958 0
742 0
856 0
932 0
612 0
415 0
152 0
654 0
995 0
725 0
685 0
386 0
266 0
976 0
127 0
821 0
961 0
987 0
717 0
222 0
131 0
329 0
372 0
175 0
667 0
847 0
865 0
345 0
592 0
583 0
696 0
546 0
641 0
781 0
188 0
193 0
164 0
368 0
149 0
218 0
334 0
814 0
838 0
448 0
569 0
491 0
477 0
578 0
439 0
537 0
271 0
294 0
774 0
798 0
